% ----DATA VARIABLES----

t=8;%number of attributes
k=4;%max length of the support set
n=10;%number of positive instances
m=10;%number of negative instances
c=2;%number of atMostOne Constraints

% ----OMEGAS----

omegap= [| 1, 1, 1, 0, 1, 0, 0, 1|
 1, 0, 1, 0, 1, 0, 0, 0|
 1, 1, 1, 1, 0, 0, 0, 1|
 1, 1, 0, 1, 0, 1, 1, 0|
 1, 0, 0, 1, 1, 1, 1, 1|
 1, 1, 0, 0, 1, 0, 1, 0|
 1, 0, 0, 0, 0, 1, 0, 1|
 0, 0, 0, 0, 1, 1, 0, 0|
 1, 0, 1, 0, 1, 1, 0, 1|
 0, 1, 1, 0, 0, 0, 0, 0|];

omegan= [| 0, 0, 1, 0, 1, 0, 1, 1|
 1, 1, 1, 1, 1, 0, 0, 1|
 0, 0, 1, 1, 0, 0, 1, 1|
 1, 0, 1, 0, 1, 1, 0, 0|
 1, 0, 0, 1, 1, 1, 0, 0|
 1, 0, 0, 1, 0, 0, 0, 0|
 1, 0, 0, 1, 0, 0, 0, 0|
 0, 0, 1, 0, 0, 1, 0, 1|
 1, 1, 0, 0, 0, 1, 0, 0|
 0, 0, 0, 1, 1, 1, 0, 0|];

% ----CONSTRAINS----

atMostOne=[{6}, {3, 4}];